\ This file has been generated by DOcplex
\ ENCODING=ISO-8859-1
\Problem name: Qrandom22642_6.lp

Minimize
 obj: - 50456 x0 - 25228 x1 - 50236 x2 - 25118 x3 - 49882 x4 - 24941 x5 + [
      33976 x0^2 + 33976 x0*x1 + 67088 x0*x2 + 33544 x0*x3 + 67520 x0*x4
      + 33760 x0*x5 + 8494 x1^2 + 33544 x1*x2 + 16772 x1*x3 + 33760 x1*x4
      + 16880 x1*x5 + 34000 x2^2 + 34000 x2*x3 + 67184 x2*x4 + 33592 x2*x5
      + 8500 x3^2 + 33592 x3*x4 + 16796 x3*x5 + 34040 x4^2 + 34040 x4*x5
      + 8510 x5^2 ]/2 + 37620
Subject To

Bounds
 0 <= x0 <= 1
 0 <= x1 <= 1
 0 <= x2 <= 1
 0 <= x3 <= 1
 0 <= x4 <= 1
 0 <= x5 <= 1

Binaries
 x0 x1 x2 x3 x4 x5
End
